c 
p cnf 124 204
-14 -3 21 0
-14 -3 -21 0
-16 -5 22 0
-16 -5 -22 0
-14 -8 23 0
-23 3 -17 0
7 2 24 0
-24 -3 6 0
6 -3 25 0
6 -3 -25 0
19 26 27 0
19 26 -27 0
19 -26 27 0
19 -26 -27 0
6 -5 28 0
6 -5 -28 0
12 29 30 0
12 29 -30 0
12 -29 30 0
12 -29 -30 0
-20 10 -13 0
-19 -4 31 0
-19 -4 -31 0
-3 18 32 0
-3 18 -32 0
15 -7 4 0
11 33 34 0
11 33 -34 0
11 -33 34 0
11 -33 -34 0
4 -2 35 0
-35 3 36 0
-36 17 -1 0
-14 -4 17 0
-2 37 38 0
-2 37 -38 0
-2 -37 38 0
-2 -37 -38 0
9 -14 39 0
9 -14 -39 0
-15 -13 40 0
-15 -13 -40 0
-16 18 41 0
-41 -9 -11 0
-5 42 43 0
-5 42 -43 0
-5 -42 43 0
-5 -42 -43 0
-20 -17 44 0
-44 6 45 0
-45 -18 4 0
10 46 47 0
10 46 -47 0
10 -46 47 0
10 -46 -47 0
2 5 3 0
15 6 48 0
15 6 -48 0
-3 49 50 0
-3 49 -50 0
-3 -49 50 0
-3 -49 -50 0
11 20 -16 0
1 -12 51 0
-51 18 -11 0
1 -12 52 0
-52 -18 53 0
-53 14 -20 0
12 54 55 0
12 54 -55 0
12 -54 55 0
12 -54 -55 0
9 20 -16 0
-13 56 57 0
-13 56 -57 0
-13 -56 57 0
-13 -56 -57 0
8 58 59 0
8 58 -59 0
8 -58 59 0
8 -58 -59 0
16 -2 60 0
-60 15 61 0
-61 10 18 0
5 -13 62 0
5 -13 -62 0
20 15 63 0
20 15 -63 0
-4 64 65 0
-4 64 -65 0
-4 -64 65 0
-4 -64 -65 0
4 19 66 0
-66 -18 -13 0
-7 -5 67 0
-67 -6 8 0
11 68 69 0
11 68 -69 0
11 -68 69 0
11 -68 -69 0
-7 -3 70 0
-70 -8 -2 0
3 10 71 0
-71 15 16 0
12 5 72 0
-72 10 9 0
-10 73 74 0
-10 73 -74 0
-10 -73 74 0
-10 -73 -74 0
-5 -18 75 0
-5 -18 -75 0
-6 -11 76 0
-76 -9 16 0
10 -16 11 0
-13 -2 77 0
-13 -2 -77 0
-5 18 78 0
-78 -7 79 0
-79 -1 6 0
8 14 80 0
-80 15 81 0
-81 -1 -18 0
13 19 82 0
-82 -4 83 0
-83 -5 3 0
-20 84 85 0
-20 84 -85 0
-20 -84 85 0
-20 -84 -85 0
18 14 86 0
-86 9 -20 0
-13 87 88 0
-13 87 -88 0
-13 -87 88 0
-13 -87 -88 0
-20 -9 89 0
-89 6 90 0
-90 18 -3 0
1 -10 9 0
-7 19 -17 0
11 -3 91 0
-91 -12 92 0
-92 -10 -14 0
-2 -1 -3 0
10 15 93 0
10 15 -93 0
2 13 94 0
-94 -14 15 0
3 -14 -1 0
-6 95 96 0
-6 95 -96 0
-6 -95 96 0
-6 -95 -96 0
-7 97 98 0
-7 97 -98 0
-7 -97 98 0
-7 -97 -98 0
7 6 99 0
-99 -5 100 0
-100 -16 -13 0
-13 101 102 0
-13 101 -102 0
-13 -101 102 0
-13 -101 -102 0
-11 -10 103 0
-11 -10 -103 0
20 -17 104 0
-104 -11 105 0
-105 -14 -1 0
-8 9 106 0
-106 1 107 0
-107 20 -2 0
3 -12 108 0
3 -12 -108 0
1 -17 109 0
-109 16 110 0
-110 3 -13 0
3 111 112 0
3 111 -112 0
3 -111 112 0
3 -111 -112 0
-19 17 -13 0
-12 -13 113 0
-12 -13 -113 0
-11 114 115 0
-11 114 -115 0
-11 -114 115 0
-11 -114 -115 0
9 -11 116 0
-116 2 117 0
-117 -17 -19 0
19 -14 118 0
-118 -13 119 0
-119 -15 11 0
17 13 120 0
17 13 -120 0
-4 -17 121 0
-121 12 122 0
-122 20 -7 0
18 17 123 0
18 17 -123 0
-5 -14 124 0
-5 -14 -124 0
